50 9743
5274 5447 9571 8483 9061 9425 9658 7609 2535 5514 5792 3998 4560 9034 3370 4304 7584 1495 3889 10743 10006 9400 9466 3032 4919 2612 9139 8535 5383 7336 10027 2809 5896 9735 6911 2599 1628 8427 9933 7966 1176 6954 7254 3780 6279 8677 3589 9829 6407 5370 
4274 4447 8571 7483 8061 8425 8658 6609 1535 4514 4792 2998 3560 8034 2370 3304 6584 495 2889 9743 9006 8400 8466 2032 3919 1612 8139 7535 4383 6336 9027 1809 4896 8735 5911 1599 628 7427 8933 6966 176 5954 6254 2780 5279 7677 2589 8829 5407 4370 
